NAME: pr76
COMMENT: Local search tour for pr76 (128931.87793123037)
TYPE: TOUR
DIMENSION: 76
TOUR_SECTION: 1 76 75 2 3 4 20 30 31 19 5 6 7 8 9 10 12 13 14 74 15 16 11 17 18 37 36 35 38 39 61 62 57 63 64 73 72 71 65 66 51 56 55 58 59 60 41 40 34 33 32 29 26 27 28 43 42 54 53 52 49 50 67 70 68 69 47 48 44 45 46 24 25 21 22 23 -1
EOF